6650
1 0 0 0 1 0 0 0 1 1 0 0 0 1 1 0 1 0 1 1 
16 18 4 9 19 18 16 13 16 16 8 18 19 19 19 0 0 13 14 14 14 9 9 8 8 8 4 16 16 13 0 19 19 8 14 19 19 0 0 0 0 4 13 16 9 14 8 19 18 19 16 16 16 13 13 9 16 14 14 14 8 4 4 4 9 4 0 0 19 19 18 18 19 19 19 18 18 19 19 19 
